Data path: /scratch/opt/lxu/CFLG/benchmarks/tree_A
Instance: treeA.150.22
Result path: /scratch/opt/lxu/CFLG/results/tree_A
Solver: Gurobi
Time limit: 7200
Formulation: LEFPAD
Cover: Small
julia --project=. src/main.jl /scratch/opt/lxu/CFLG/benchmarks/tree_A treeA.150.22 /scratch/opt/lxu/CFLG/results/tree_A Gurobi 7200 LEFPAD Small
The latest version of Julia in the `release` channel is 1.11.6+0.x64.linux.gnu. You currently have `1.11.4+0.x64.linux.gnu` installed. Run:

  juliaup update

in your terminal shell to install Julia 1.11.6+0.x64.linux.gnu and update the `release` channel to that version.
/scratch/opt/lxu/CFLG/benchmarks/tree_A Gurobi 7200.0 /scratch/opt/lxu/CFLG/results/tree_A treeA.150.22 LEFPAD Small
/scratch/opt/lxu/CFLG/benchmarks/tree_A/treeA.150.22

 read graph
data loaded


after absorb:92 150

max_piece:18
problem_graph/original graph: node: 92/150 edge: 113/171 dlt: 0.37350368461767663 break_avg_len: 2.260854161756557 break_max_len: 6.349947775897901Vbar/V, Ebar/E(51, 92, 72, 113)
Set parameter TokenServer to value "solice01.zib.de"
Set parameter Threads to value 1
Set parameter OutputFlag to value 1
Gurobi Optimizer version 12.0.1 build v12.0.1rc0 (linux64 - "Debian GNU/Linux 12 (bookworm)")

CPU model: Intel(R) Xeon(R) Gold 5222 CPU @ 3.80GHz, instruction set [SSE2|AVX|AVX2|AVX512]
Thread count: 8 physical cores, 16 logical processors, using up to 1 threads

Non-default parameters:
Threads  1

Optimize a model with 179 rows, 300 columns and 500 nonzeros
Model fingerprint: 0xb99f50ad
Coefficient statistics:
  Matrix range     [1e+00, 1e+00]
  Objective range  [1e+00, 1e+00]
  Bounds range     [1e+00, 1e+00]
  RHS range        [1e+00, 1e+00]
Presolve removed 56 rows and 56 columns
Presolve time: 0.00s
Presolved: 123 rows, 244 columns, 388 nonzeros

Iteration    Objective       Primal Inf.    Dual Inf.      Time
       0    8.7000000e+01   4.100000e+01   0.000000e+00      0s
      74    5.1000000e+01   0.000000e+00   0.000000e+00      0s

Solved in 74 iterations and 0.00 seconds (0.00 work units)
Optimal objective  5.100000000e+01

User-callback calls 121, time in user-callback 0.00 sec
elapsed CPU time: 0.979852 seconds
Set parameter TokenServer to value "solice01.zib.de"
Set parameter Threads to value 1
Set parameter OutputFlag to value 1
Set parameter MIPGap to value 0.0001
Set parameter TimeLimit to value 7199.020148

 more cuts: false 0.37350368461767663 false
is_attach:trueformulation:LEFPAD72 28 28

 model loaded

Gurobi Optimizer version 12.0.1 build v12.0.1rc0 (linux64 - "Debian GNU/Linux 12 (bookworm)")

CPU model: Intel(R) Xeon(R) Gold 5222 CPU @ 3.80GHz, instruction set [SSE2|AVX|AVX2|AVX512]
Thread count: 8 physical cores, 16 logical processors, using up to 1 threads

Non-default parameters:
TimeLimit  7199.020148
Threads  1

Optimize a model with 1860 rows, 1217 columns and 4087 nonzeros
Model fingerprint: 0x457c0e32
Variable types: 547 continuous, 670 integer (670 binary)
Coefficient statistics:
  Matrix range     [4e-04, 6e+00]
  Objective range  [1e+00, 1e+00]
  Bounds range     [4e-04, 6e+00]
  RHS range        [4e-04, 6e+00]
Presolve removed 1219 rows and 538 columns
Presolve time: 0.01s
Presolved: 641 rows, 679 columns, 2125 nonzeros
Variable types: 397 continuous, 282 integer (282 binary)
Found heuristic solution: objective 367.0000000

Root relaxation: objective 3.085523e+02, 820 iterations, 0.01 seconds (0.01 work units)

    Nodes    |    Current Node    |     Objective Bounds      |     Work
 Expl Unexpl |  Obj  Depth IntInf | Incumbent    BestBd   Gap | It/Node Time

     0     0  308.55233    0  169  367.00000  308.55233  15.9%     -    0s
H    0     0                     348.0000000  308.55233  11.3%     -    0s
H    0     0                     347.0000000  308.55233  11.1%     -    0s
     0     0  319.95712    0  178  347.00000  319.95712  7.79%     -    0s
H    0     0                     340.0000000  319.99028  5.89%     -    0s
H    0     0                     339.0000000  319.99028  5.61%     -    0s
     0     0  320.22898    0  175  339.00000  320.22898  5.54%     -    0s
     0     0  320.31935    0  177  339.00000  320.31935  5.51%     -    0s
     0     0  320.31936    0  177  339.00000  320.31936  5.51%     -    0s
     0     0  322.44781    0  183  339.00000  322.44781  4.88%     -    0s
H    0     0                     338.0000000  322.45373  4.60%     -    0s
     0     0  322.51836    0  175  338.00000  322.51836  4.58%     -    0s
     0     0  322.53463    0  176  338.00000  322.53463  4.58%     -    0s
     0     0  322.53506    0  176  338.00000  322.53506  4.58%     -    0s
     0     0  323.67029    0  171  338.00000  323.67029  4.24%     -    0s
H    0     0                     337.0000000  323.67287  3.95%     -    0s
     0     0  323.79291    0  172  337.00000  323.79291  3.92%     -    0s
     0     0  323.85920    0  176  337.00000  323.85920  3.90%     -    0s
     0     0  323.86197    0  177  337.00000  323.86197  3.90%     -    0s
     0     0  324.15488    0  157  337.00000  324.15488  3.81%     -    0s
     0     0  324.25787    0  165  337.00000  324.25787  3.78%     -    0s
     0     0  324.26801    0  165  337.00000  324.26801  3.78%     -    0s
     0     0  324.96486    0  175  337.00000  324.96486  3.57%     -    0s
     0     0  324.98641    0  183  337.00000  324.98641  3.56%     -    0s
     0     0  324.98656    0  172  337.00000  324.98656  3.56%     -    0s
     0     0  325.22453    0  158  337.00000  325.22453  3.49%     -    0s
     0     0  325.71708    0  171  337.00000  325.71708  3.35%     -    0s
     0     0  325.71920    0  155  337.00000  325.71920  3.35%     -    0s
     0     0  325.74170    0  149  337.00000  325.74170  3.34%     -    0s
     0     0  325.74170    0  157  337.00000  325.74170  3.34%     -    0s
     0     0  325.74170    0  150  337.00000  325.74170  3.34%     -    0s
H    0     0                     336.0000000  325.81529  3.03%     -    0s
     0     2  325.81529    0  149  336.00000  325.81529  3.03%     -    0s
H   54    51                     335.0000000  325.85424  2.73%  30.6    0s
H  486   368                     334.0000000  326.18462  2.34%  30.4    0s
H  743   517                     333.0000000  329.00444  1.20%  71.2    4s
   824   560  330.28573   49   82  333.00000  329.00444  1.20%  71.1    5s
* 1009   526              72     332.0000000  329.01168  0.90%  67.6    5s
  3014  1085  330.00000   35   40  332.00000  330.00000  0.60%  61.0   10s
  5252  1868  330.66297   34   41  332.00000  330.00000  0.60%  59.2   15s
  7374  2653  330.30950   38   80  332.00000  330.00000  0.60%  60.9   20s
  9422  3287  330.29115   36   37  332.00000  330.00178  0.60%  61.7   25s
 10203  3526  330.15926   41  150  332.00000  330.00326  0.60%  60.8   30s
 10384  3603  331.00000   53   40  332.00000  330.00326  0.60%  62.4   35s
 11619  3587  330.03737   40  105  332.00000  330.02703  0.59%  63.5   40s
 13497  3319  330.48249   46   99  332.00000  330.42541  0.47%  65.0   45s
 16245  2571     cutoff   71       332.00000  331.00000  0.30%  64.2   50s
 20248  1148     cutoff   57       332.00000  331.00000  0.30%  58.1   55s
 24905   778     cutoff   69       332.00000  331.00000  0.30%  53.0   60s
 29483   681     cutoff   62       332.00000  331.00000  0.30%  50.1   65s
 34112   571     cutoff   55       332.00000  331.00000  0.30%  47.8   70s
 38305   507  331.00000   55   21  332.00000  331.00000  0.30%  46.7   75s
 42357   450  331.00000   68    2  332.00000  331.00000  0.30%  45.8   80s
 46396   381  331.00000   56   18  332.00000  331.00000  0.30%  44.9   85s
 50116   288  331.00000   48   35  332.00000  331.00000  0.30%  44.7   90s
 53949   246     cutoff   63       332.00000  331.00000  0.30%  44.4   95s
 57716   180     cutoff   56       332.00000  331.00000  0.30%  44.1  100s
 62422   192  331.00000   56   13  332.00000  331.00000  0.30%  42.9  105s
 66603   169     cutoff   59       332.00000  331.00000  0.30%  42.2  110s
 71368   193  331.00000   62   14  332.00000  331.00000  0.30%  41.2  115s
 76018   170  331.00000   57   15  332.00000  331.00000  0.30%  40.5  120s
 79992   149  331.00000   51   34  332.00000  331.00000  0.30%  40.2  125s
 84374   134  331.00000   58   20  332.00000  331.00000  0.30%  39.8  130s

Cutting planes:
  Gomory: 36
  Cover: 171
  Implied bound: 37
  Clique: 2
  MIR: 333
  Mixing: 2
  Flow cover: 521
  GUB cover: 22
  Inf proof: 2
  Zero half: 4
  RLT: 24
  Relax-and-lift: 9
  BQP: 1

Explored 86172 nodes (3445032 simplex iterations) in 132.77 seconds (100.81 work units)
Thread count was 1 (of 16 available processors)

Solution count 10: 332 332 333 ... 340

Optimal solution found (tolerance 1.00e-04)
Best objective 3.320000000000e+02, best bound 3.320000000000e+02, gap 0.0000%

User-callback calls 215837, time in user-callback 0.13 sec

 sepatime0 0 0
332.0
Stat(MathOptInterface.OPTIMAL, 332.0, 332.0, 0.0, 0.0, 0.979852, 132.7654149532318, 86172, Main.CFLG.LEFPAD, "", #undef)
